60
2 0 10
2 1 9
3 0 7
4 0 12
4 2 2
5 0 11
6 3 10
6 5 4
7 1 8
7 2 2
7 3 11
8 1 3
8 2 6
8 3 2
9 1 5
9 4 6
9 5 9
9 6 5
9 7 12
10 1 2
10 3 1
10 5 10
10 6 10
10 7 9
10 8 11
11 2 3
11 10 8
12 0 1
12 2 11
12 3 11
12 4 3
12 7 7
12 8 7
12 9 7
12 10 10
12 11 7
13 0 9
13 1 9
13 2 11
13 4 10
13 6 11
13 7 4
13 8 6
13 9 8
13 10 10
13 12 1
14 0 7
14 1 1
14 3 4
14 4 2
14 5 10
14 6 7
14 7 8
14 8 4
14 12 12
15 0 10
15 5 2
15 6 8
15 7 12
15 9 5
15 14 6
16 0 5
16 6 4
16 7 6
16 9 3
16 10 6
16 15 9
17 0 1
17 2 3
17 3 6
17 4 2
17 5 11
17 6 2
17 10 1
17 11 12
17 13 12
17 16 3
18 0 10
18 3 2
18 6 4
18 7 10
18 9 8
18 11 1
18 12 11
18 17 7
19 0 2
19 1 6
19 4 5
19 5 10
19 6 2
19 11 11
19 13 1
19 15 12
19 17 6
20 1 12
20 3 12
20 5 1
20 8 7
20 12 7
20 13 3
20 14 4
20 15 2
20 16 8
20 18 6
20 19 4
21 2 4
21 3 4
21 5 5
21 6 8
21 7 5
21 8 9
21 9 8
21 10 11
21 11 7
21 15 11
21 16 8
21 19 3
21 20 1
22 0 3
22 2 9
22 5 5
22 9 2
22 12 12
22 13 6
22 14 12
22 15 6
22 18 7
22 19 3
23 0 10
23 1 2
23 5 10
23 6 6
23 7 11
23 8 11
23 9 2
23 14 3
23 15 9
23 16 3
23 18 6
23 19 1
23 22 3
24 0 12
24 1 9
24 3 10
24 4 3
24 5 3
24 7 4
24 8 1
24 9 8
24 11 5
24 12 9
24 15 12
24 17 11
24 19 4
24 20 3
24 22 8
24 23 5
25 0 8
25 2 12
25 3 9
25 9 11
25 11 9
25 15 4
25 20 10
25 23 11
25 24 9
26 1 3
26 2 9
26 5 12
26 6 12
26 7 4
26 9 6
26 10 1
26 19 6
26 20 8
26 21 10
26 22 9
26 23 5
26 24 4
27 1 10
27 5 2
27 9 9
27 11 2
27 13 5
27 14 10
27 16 1
27 17 10
27 18 3
27 21 5
27 25 8
27 26 3
28 5 1
28 6 1
28 7 12
28 8 2
28 9 5
28 10 5
28 11 7
28 12 9
28 15 4
28 16 2
28 17 1
28 19 2
28 21 1
28 25 10
29 1 6
29 4 6
29 6 2
29 7 8
29 10 7
29 13 10
29 15 6
29 16 9
29 18 6
29 19 10
29 20 9
29 23 5
30 2 5
30 5 10
30 7 6
30 9 5
30 11 7
30 12 7
30 16 11
30 17 7
30 21 10
30 23 1
30 25 6
30 26 11
30 27 8
30 28 2
30 29 6
31 0 11
31 1 5
31 2 3
31 3 7
31 5 12
31 7 9
31 8 9
31 9 10
31 16 2
31 17 1
31 18 3
31 19 9
31 20 4
31 24 3
31 30 11
32 0 10
32 4 10
32 11 4
32 12 10
32 13 11
32 15 11
32 18 12
32 20 6
32 24 9
32 25 10
32 26 10
32 30 1
32 31 8
33 0 3
33 1 8
33 2 10
33 3 10
33 10 12
33 12 4
33 15 12
33 19 2
33 20 5
33 22 1
33 23 12
33 24 10
33 28 3
33 30 12
33 31 5
34 1 10
34 5 4
34 8 5
34 11 10
34 15 4
34 17 7
34 18 8
34 21 6
34 25 7
34 27 3
34 28 9
34 30 3
35 1 10
35 2 4
35 3 1
35 5 10
35 6 2
35 7 3
35 9 11
35 11 2
35 12 4
35 14 12
35 19 12
35 21 8
35 30 10
35 31 9
35 32 10
35 33 4
35 34 11
36 0 9
36 2 6
36 5 3
36 8 2
36 9 4
36 10 5
36 12 9
36 15 6
36 16 9
36 20 4
36 21 3
36 23 4
36 28 3
36 29 4
36 30 11
36 33 8
36 34 5
37 1 3
37 4 8
37 5 6
37 6 9
37 8 7
37 9 7
37 13 10
37 15 4
37 16 10
37 17 2
37 21 2
37 22 6
37 23 6
37 25 10
37 26 4
37 29 2
37 31 3
37 35 11
38 1 10
38 2 3
38 4 1
38 9 7
38 10 6
38 14 2
38 17 11
38 21 2
38 24 3
38 26 8
38 29 11
38 32 4
38 35 12
39 2 1
39 3 11
39 6 6
39 8 8
39 9 1
39 14 7
39 18 9
39 19 12
39 22 2
39 31 6
39 32 2
39 34 9
40 0 9
40 1 10
40 2 7
40 4 10
40 5 10
40 6 9
40 7 5
40 8 3
40 10 11
40 11 11
40 13 12
40 17 8
40 18 8
40 19 5
40 20 2
40 23 5
40 25 1
40 26 11
40 28 12
40 29 4
40 30 10
40 31 1
40 32 3
40 33 2
40 35 12
40 36 9
40 38 2
40 39 1
41 1 4
41 2 3
41 3 6
41 6 7
41 7 4
41 9 10
41 14 6
41 17 3
41 18 2
41 19 12
41 23 1
41 24 7
41 25 4
41 30 9
41 32 4
41 34 4
41 37 2
41 38 10
41 39 10
42 3 1
42 6 4
42 7 12
42 8 7
42 9 5
42 12 10
42 13 2
42 15 6
42 18 1
42 19 3
42 22 9
42 23 9
42 24 11
42 26 6
42 31 1
42 33 6
42 34 9
42 35 4
42 36 2
42 37 5
42 38 11
42 39 5
42 41 1
43 0 4
43 4 8
43 5 12
43 8 7
43 9 12
43 10 6
43 11 2
43 13 9
43 14 4
43 16 7
43 18 6
43 19 9
43 20 1
43 21 4
43 22 10
43 25 11
43 27 4
43 29 11
43 32 1
43 34 12
43 36 3
43 38 6
43 41 8
44 0 11
44 1 7
44 2 1
44 3 5
44 5 9
44 6 8
44 8 6
44 10 8
44 12 12
44 16 7
44 19 12
44 20 11
44 25 7
44 27 10
44 29 8
44 31 3
44 34 7
44 35 5
44 39 11
44 40 2
44 41 5
44 42 1
44 43 8
45 0 11
45 2 2
45 3 10
45 5 7
45 6 11
45 7 6
45 8 7
45 10 4
45 11 8
45 13 12
45 14 10
45 15 10
45 21 6
45 23 3
45 24 11
45 27 5
45 29 6
45 30 9
45 31 2
45 33 10
45 35 11
45 36 3
45 37 11
45 38 4
45 39 9
45 40 9
45 42 9
46 1 9
46 3 1
46 4 7
46 6 2
46 7 5
46 8 2
46 9 10
46 10 2
46 11 8
46 13 9
46 15 6
46 16 9
46 17 8
46 24 1
46 27 12
46 31 7
46 33 7
46 35 7
46 37 7
46 38 9
46 39 2
46 43 10
46 44 11
46 45 1
47 1 11
47 2 2
47 3 11
47 5 3
47 8 2
47 9 7
47 10 7
47 11 8
47 13 1
47 14 12
47 16 3
47 17 4
47 18 3
47 19 9
47 25 10
47 26 8
47 33 7
47 34 2
47 35 3
47 38 11
47 39 7
47 40 1
47 42 5
47 45 6
47 46 11
48 0 1
48 1 3
48 4 1
48 6 2
48 7 8
48 9 9
48 11 6
48 12 10
48 13 9
48 16 12
48 18 7
48 21 7
48 22 1
48 24 4
48 26 12
48 27 4
48 30 3
48 31 6
48 35 6
48 36 9
48 41 12
48 44 6
48 46 6
48 47 4
49 2 4
49 3 8
49 7 2
49 9 11
49 10 4
49 12 1
49 16 1
49 17 2
49 21 4
49 22 11
49 27 6
49 29 9
49 32 7
49 33 12
49 34 9
49 37 4
49 38 5
49 41 10
49 43 3
49 44 10
49 45 6
49 47 5
49 48 12
50 4 12
50 5 6
50 6 2
50 9 5
50 12 12
50 13 12
50 15 5
50 16 4
50 18 5
50 19 3
50 21 8
50 22 3
50 23 9
50 24 9
50 25 9
50 27 9
50 30 5
50 32 8
50 33 11
50 37 11
50 38 9
50 41 12
50 42 10
50 46 2
50 47 8
50 49 9
51 2 10
51 4 11
51 5 10
51 6 1
51 8 11
51 9 10
51 11 7
51 13 7
51 15 10
51 16 7
51 17 1
51 20 3
51 21 11
51 22 1
51 23 11
51 24 10
51 28 12
51 29 4
51 31 11
51 33 8
51 34 3
51 39 8
51 41 9
51 43 7
51 45 6
51 48 10
51 49 11
51 50 8
52 1 3
52 3 7
52 4 9
52 5 6
52 10 3
52 13 7
52 17 12
52 18 10
52 19 9
52 20 10
52 22 9
52 23 8
52 24 1
52 27 2
52 29 10
52 32 5
52 35 2
52 36 12
52 37 5
52 38 8
52 40 10
52 43 9
52 44 3
52 47 2
52 48 6
52 49 4
52 51 2
53 4 9
53 6 5
53 7 2
53 8 3
53 13 8
53 15 1
53 20 4
53 22 5
53 26 11
53 28 11
53 34 8
53 35 9
53 36 5
53 39 12
53 40 8
53 41 6
53 43 8
53 44 11
53 45 3
53 46 8
53 47 3
53 49 3
53 50 2
53 51 6
54 1 5
54 2 9
54 4 1
54 6 9
54 7 8
54 8 11
54 11 8
54 12 8
54 13 7
54 14 11
54 16 3
54 17 6
54 18 6
54 19 6
54 20 7
54 22 1
54 23 5
54 27 3
54 31 8
54 32 11
54 33 5
54 35 3
54 37 10
54 38 6
54 41 12
54 46 6
54 48 8
54 51 2
55 1 3
55 4 9
55 6 12
55 7 3
55 8 2
55 12 5
55 13 1
55 14 4
55 15 10
55 17 8
55 18 3
55 19 7
55 20 4
55 21 1
55 22 11
55 24 4
55 26 6
55 27 3
55 30 7
55 36 4
55 37 9
55 38 3
55 43 1
55 47 4
55 50 2
56 1 10
56 4 9
56 7 12
56 8 8
56 10 5
56 12 4
56 13 6
56 16 1
56 17 5
56 24 6
56 26 12
56 29 11
56 32 12
56 33 1
56 34 2
56 36 4
56 37 5
56 39 12
56 41 4
56 43 4
56 44 3
56 47 11
56 48 9
56 49 11
56 52 9
56 54 4
57 0 5
57 1 10
57 3 6
57 4 3
57 8 3
57 11 2
57 14 3
57 16 12
57 17 5
57 21 1
57 22 11
57 23 5
57 24 3
57 25 5
57 26 11
57 29 2
57 33 1
57 34 11
57 43 2
57 45 7
57 50 7
57 51 5
57 52 11
57 54 1
57 55 5
58 1 10
58 2 5
58 5 11
58 9 8
58 12 10
58 15 10
58 22 12
58 25 7
58 26 4
58 27 6
58 28 9
58 31 4
58 32 9
58 36 12
58 41 6
58 42 5
58 44 7
58 46 2
58 51 5
58 52 2
58 53 10
58 57 2
59 2 11
59 3 7
59 7 9
59 10 6
59 11 2
59 12 9
59 14 8
59 15 3
59 16 4
59 18 4
59 21 12
59 22 6
59 23 5
59 24 12
59 26 3
59 28 4
59 29 3
59 30 9
59 31 11
59 32 9
59 33 12
59 34 3
59 35 3
59 36 12
59 37 4
59 40 8
59 42 1
59 48 4
59 50 9
59 54 1
59 58 8
